Operations Research(Coursera)/Product Mix Problem/production_2.sol
# Solution for model Production
# Objective value = 7.8947368421052629e+05
Prod0 8.8421052631578948e+02
Prod1 1.8947368421052633e+02
